c t wmc
c file mc2023_track2_106.cnf
p cnf 90 270
-1 -72 -50 0
3 -63 22 0
-87 6 4 0
77 66 74 0
20 -65 41 0
-13 -31 18 0
2 80 -12 0
-40 10 -5 0
-24 -17 -66 0
-57 -78 -81 0
86 -22 15 0
73 62 -34 0
34 -43 -40 0
30 -28 -81 0
-17 85 35 0
-39 -14 -68 0
30 -35 -62 0
-66 -12 -56 0
-56 58 -72 0
-52 6 80 0
-21 -68 8 0
-51 60 -58 0
-63 2 -75 0
-2 26 30 0
78 -56 31 0
90 -11 65 0
-27 -46 20 0
-37 -79 -63 0
20 -83 42 0
5 46 35 0
79 -24 83 0
-37 -34 48 0
88 65 -34 0
85 38 87 0
12 -87 18 0
19 15 -80 0
80 -59 65 0
-73 -83 32 0
-13 -67 -2 0
-78 29 11 0
-1 86 -34 0
-83 -2 -39 0
41 -39 50 0
-72 -84 -9 0
70 83 58 0
30 77 -35 0
-62 -50 -41 0
59 49 -25 0
-78 37 71 0
-37 -64 65 0
-35 32 54 0
-53 -87 6 0
2 81 69 0
-29 -85 -38 0
60 -75 -25 0
90 35 89 0
81 20 -22 0
54 -85 89 0
-55 18 -63 0
68 -58 -21 0
6 54 45 0
3 80 41 0
49 -24 81 0
46 54 5 0
-79 65 -87 0
-52 -40 34 0
46 20 -10 0
-36 39 -56 0
37 1 2 0
-54 60 3 0
-1 -63 6 0
-72 50 -39 0
-53 74 -27 0
-37 49 81 0
-42 -1 72 0
-78 -10 -73 0
-89 -51 -30 0
-67 88 46 0
-33 9 61 0
-86 90 8 0
-63 -65 79 0
9 58 -10 0
14 28 19 0
-47 57 14 0
-43 -86 33 0
-74 6 -13 0
73 56 27 0
-74 -84 -11 0
75 31 23 0
68 17 -51 0
15 67 -52 0
-47 65 -75 0
74 13 -5 0
-49 12 70 0
71 1 54 0
-2 -4 -78 0
51 -15 68 0
-13 56 -52 0
-36 -21 -45 0
21 -75 30 0
-8 -3 -5 0
68 21 -16 0
-47 57 44 0
33 -31 -27 0
-52 -41 -27 0
26 17 -59 0
28 -57 -20 0
-62 43 2 0
-3 88 76 0
28 -75 -40 0
12 35 15 0
-27 40 -59 0
85 -47 -38 0
-83 -82 74 0
73 72 30 0
39 -27 31 0
-83 86 25 0
-79 16 55 0
41 -55 -34 0
31 -75 -76 0
36 -62 -83 0
-30 -84 -14 0
-28 84 -64 0
68 16 22 0
-79 57 33 0
-3 -34 -74 0
-82 -81 -52 0
-25 66 -59 0
61 67 60 0
-74 -71 46 0
-43 -17 -9 0
-90 -89 39 0
-62 85 68 0
-64 79 -35 0
-74 -65 -34 0
20 87 81 0
18 -35 58 0
23 86 41 0
-27 38 -57 0
26 57 -10 0
76 -46 4 0
47 90 22 0
-36 -31 48 0
-67 -70 -1 0
69 -43 22 0
-15 -41 -21 0
-53 -19 -64 0
71 39 26 0
-40 20 -24 0
52 47 2 0
-3 56 86 0
-59 75 64 0
-67 56 9 0
-86 -6 -40 0
15 -63 -32 0
90 -63 21 0
-83 -72 -50 0
38 16 10 0
60 55 -35 0
-56 22 -80 0
-35 -82 48 0
-43 -17 37 0
46 -17 9 0
-25 28 42 0
-5 -24 54 0
67 -63 45 0
-29 -58 -63 0
-86 -62 10 0
-81 73 -3 0
-57 45 46 0
20 1 -56 0
41 3 -56 0
63 -50 37 0
33 -61 30 0
66 9 73 0
-37 -9 -87 0
24 -47 9 0
27 28 -34 0
43 79 -16 0
-25 73 78 0
-17 33 57 0
-65 -3 18 0
-72 18 -70 0
3 -69 68 0
-36 73 52 0
48 -5 72 0
84 1 12 0
28 -15 -17 0
44 -80 -86 0
-81 -63 70 0
-21 35 -71 0
65 39 33 0
3 -74 33 0
-2 66 58 0
18 -23 51 0
66 -44 53 0
-52 -72 -83 0
-27 90 -77 0
-18 -39 -70 0
-2 58 31 0
81 18 -9 0
-11 -16 -77 0
-49 18 8 0
7 44 -79 0
2 5 -74 0
35 -28 48 0
6 75 -89 0
-80 -26 28 0
47 -88 -34 0
-18 46 41 0
-3 11 -53 0
45 -63 -15 0
65 61 36 0
31 -5 28 0
-85 9 65 0
33 82 70 0
-17 12 -15 0
-40 -17 30 0
-8 -47 -69 0
-3 63 -69 0
-30 70 22 0
74 28 65 0
33 14 -69 0
81 -16 -68 0
-56 -77 -83 0
75 71 -35 0
-57 -13 26 0
27 84 -25 0
70 -81 12 0
-25 -84 34 0
-64 8 -26 0
-28 -14 48 0
-40 -18 33 0
46 12 78 0
-17 -82 62 0
8 -50 11 0
29 45 -17 0
13 22 -72 0
-12 64 -63 0
7 -71 15 0
4 -20 -67 0
-15 54 28 0
86 -39 -12 0
83 19 -3 0
57 -26 15 0
-53 23 66 0
2 -73 67 0
-2 -38 -25 0
52 73 31 0
-47 -22 -42 0
-56 -38 2 0
-83 81 -13 0
-85 -83 -70 0
34 -11 -13 0
81 -1 37 0
-34 -83 44 0
81 -71 75 0
-46 -36 57 0
-65 -43 -72 0
28 75 61 0
-42 17 -47 0
31 76 83 0
57 -7 -83 0
-13 7 -24 0
68 -25 43 0
10 88 56 0
65 -40 63 0
18 -51 -43 0
-82 -77 29 0
14 -56 68 0
c p weight 49 0.54000956 0
c p weight -49 0.45999044 0
c p weight 50 0.35877963 0
c p weight -50 0.64122037 0
c p weight 1 1 0
c p weight -1 1 0
c p weight 2 1 0
c p weight -2 1 0
c p weight 3 1 0
c p weight -3 1 0
c p weight 4 1 0
c p weight -4 1 0
c p weight 5 1 0
c p weight -5 1 0
c p weight 6 1 0
c p weight -6 1 0
c p weight 7 1 0
c p weight -7 1 0
c p weight 8 1 0
c p weight -8 1 0
c p weight 9 1 0
c p weight -9 1 0
c p weight 10 1 0
c p weight -10 1 0
c p weight 11 1 0
c p weight -11 1 0
c p weight 12 1 0
c p weight -12 1 0
c p weight 13 1 0
c p weight -13 1 0
c p weight 14 1 0
c p weight -14 1 0
c p weight 15 1 0
c p weight -15 1 0
c p weight 16 1 0
c p weight -16 1 0
c p weight 17 1 0
c p weight -17 1 0
c p weight 18 1 0
c p weight -18 1 0
c p weight 19 1 0
c p weight -19 1 0
c p weight 20 1 0
c p weight -20 1 0
c p weight 21 1 0
c p weight -21 1 0
c p weight 22 1 0
c p weight -22 1 0
c p weight 23 1 0
c p weight -23 1 0
c p weight 24 1 0
c p weight -24 1 0
c p weight 25 1 0
c p weight -25 1 0
c p weight 26 1 0
c p weight -26 1 0
c p weight 27 1 0
c p weight -27 1 0
c p weight 28 1 0
c p weight -28 1 0
c p weight 29 1 0
c p weight -29 1 0
c p weight 30 1 0
c p weight -30 1 0
c p weight 31 1 0
c p weight -31 1 0
c p weight 32 1 0
c p weight -32 1 0
c p weight 33 1 0
c p weight -33 1 0
c p weight 34 1 0
c p weight -34 1 0
c p weight 35 1 0
c p weight -35 1 0
c p weight 36 1 0
c p weight -36 1 0
c p weight 37 1 0
c p weight -37 1 0
c p weight 38 1 0
c p weight -38 1 0
c p weight 39 1 0
c p weight -39 1 0
c p weight 40 1 0
c p weight -40 1 0
c p weight 41 1 0
c p weight -41 1 0
c p weight 42 1 0
c p weight -42 1 0
c p weight 43 1 0
c p weight -43 1 0
c p weight 44 1 0
c p weight -44 1 0
c p weight 45 1 0
c p weight -45 1 0
c p weight 46 1 0
c p weight -46 1 0
c p weight 47 1 0
c p weight -47 1 0
c p weight 48 1 0
c p weight -48 1 0
c p weight 51 1 0
c p weight -51 1 0
c p weight 52 1 0
c p weight -52 1 0
c p weight 53 1 0
c p weight -53 1 0
c p weight 54 1 0
c p weight -54 1 0
c p weight 55 1 0
c p weight -55 1 0
c p weight 56 1 0
c p weight -56 1 0
c p weight 57 1 0
c p weight -57 1 0
c p weight 58 1 0
c p weight -58 1 0
c p weight 59 1 0
c p weight -59 1 0
c p weight 60 1 0
c p weight -60 1 0
c p weight 61 1 0
c p weight -61 1 0
c p weight 62 1 0
c p weight -62 1 0
c p weight 63 1 0
c p weight -63 1 0
c p weight 64 1 0
c p weight -64 1 0
c p weight 65 1 0
c p weight -65 1 0
c p weight 66 1 0
c p weight -66 1 0
c p weight 67 1 0
c p weight -67 1 0
c p weight 68 1 0
c p weight -68 1 0
c p weight 69 1 0
c p weight -69 1 0
c p weight 70 1 0
c p weight -70 1 0
c p weight 71 1 0
c p weight -71 1 0
c p weight 72 1 0
c p weight -72 1 0
c p weight 73 1 0
c p weight -73 1 0
c p weight 74 1 0
c p weight -74 1 0
c p weight 75 1 0
c p weight -75 1 0
c p weight 76 1 0
c p weight -76 1 0
c p weight 77 1 0
c p weight -77 1 0
c p weight 78 1 0
c p weight -78 1 0
c p weight 79 1 0
c p weight -79 1 0
c p weight 80 1 0
c p weight -80 1 0
c p weight 81 1 0
c p weight -81 1 0
c p weight 82 1 0
c p weight -82 1 0
c p weight 83 1 0
c p weight -83 1 0
c p weight 84 1 0
c p weight -84 1 0
c p weight 85 1 0
c p weight -85 1 0
c p weight 86 1 0
c p weight -86 1 0
c p weight 87 1 0
c p weight -87 1 0
c p weight 88 1 0
c p weight -88 1 0
c p weight 89 1 0
c p weight -89 1 0
c p weight 90 1 0
c p weight -90 1 0
